4 
5  02 17 32 45 52 
6  00 07 17 24 32 39 47 54 
7  02 09 17 24 32 39 47 54 
8  02 09 17 24 32 39 47 54 
9  02 09 17 24 32 39 51 58 
10  06 13 21 28 36 43 51 58 
11  06 13 21 28 36 43 51 58 
12  06 13 21 28 36 43 51 58 
13  06 13 21 28 36 43 51 58 
14  06 13 21 28 36 43 51 
15  02 10 17 24 32 40 47 55 
16  02 10 17 25 32 40 47 55 
17  02 10 17 25 32 40 47 56 
18  02 11 17 26 32 41 47 55 
19  06 13 21 28 36 43 53 
20  03 11 19 33 47 
21  02 17 32 47 
22  02 13 28 43 58 
23  18 
0 
